circuit_heights=[3, 4, 5, 6, 7, 8, 9, 11, 12, 13, 14, 17, 18, 21, 3, 4, 5, 6, 10, 22, 24, 3, 4, 6, 10, 14, 37];
circuit_widths=[3, 3, 3, 3, 3, 3, 3, 3, 3, 3, 3, 3, 3, 3, 4, 4, 4, 4, 4, 4, 4, 5, 5, 5, 5, 5, 12];
max_height=296;
min_height=37;
n_circuits=27;
plate_width=37;
